% Auto-generated by scripts/generate_dzn.py
% problem_type   = regex
% instance       = regex_79
% source_json    = instances_json/1_medium_blowup/regex_79.json
% blowup         = 4.1
% representation = NFA

mode = 1;

var_count = 27;
Q = 10;
S = 2;
q0 = 1;
F = {10};
d_dfa = array2d(1..10, 1..2, [
  0, 0,
  0, 0,
  0, 0,
  0, 0,
  0, 0,
  0, 0,
  0, 0,
  0, 0,
  0, 0,
  0, 0
]);
d_nfa = array2d(1..10, 1..2, [
  {1, 2}, {1},
  {}, {3},
  {}, {4},
  {5}, {5},
  {6}, {6},
  {7}, {7},
  {8}, {8},
  {9}, {9},
  {10}, {10},
  {}, {}
]);
